
(set-logic ALL) 

(declare-datatype MyList ((Nil) (Cons (head Real) (tail MyList)) )) 
(declare-fun l0 () MyList) 
(declare-fun l1 () MyList) 
(declare-fun l2 () MyList) 
(declare-fun l3 () MyList) 
(declare-fun i0 () Real) 
(declare-fun i1 () Real) 
(assert (or (is-Nil Nil) (is-Nil Nil)) )
(assert (is-Nil Nil) )
(assert (or (= l0 Nil) (is-Cons l1) (= l2 Nil)) )
(assert (is-Nil l0) )
(assert (not (= l1 l3)) )
(assert (is-Cons Nil) )
(assert (not (= l1 l2)) )
(assert (= l3 l3) )
(check-sat)
